Traveling Salesman Problem/TSP_generados/Aleatorio1621103403_13.tsp
NAME: Aleatorio1621103403_13.tsp
COMMENT: Randomly generated scenario
TYPE: TSP
DIMENSION: 13
EDGE_WEIGHT_TYPE: ATT
NODE_COORD_SECTION
1 21.94 35.21
2 11.81 19.64
3 37.26 11.85
4 23.98 33.94
5 8.57 26.69
6 46.53 38.07
7 30.93 20.92
8 49.3 41.55
9 28.33 18.04
10 20.63 34.81
11 12.94 14.53
12 16.81 36.87
13 24.29 37.36
