Traveling Salesman Problem/TSP_generados/Aleatorio1621103403_13.opt.tour
NAME: Aleatorio1621103403_13.opt.tour
COMMENT: Optimal solution for Aleatorio1621103403_13 (125.97856105105124)
TYPE: TOUR
DIMENSION: 13
TOUR_SECTION
1 10 12 5 2 11 9 7 3 6 8 13 4
-1
EOF
